(set-logic LIA)

(declare-const x Int)
(declare-const x! Int)
(declare-const n Int)
(declare-const n! Int)

(declare-const x_22 Int)
(declare-const x_17 Int)
(declare-const x_15 Int)
(declare-const n_0 Int)

(define-fun inv-f((n Int)(x Int)) Bool
